\ LP format - for model browsing. Use MPS format to capture full model detail.
Minimize
  0 y(0) + 0 y(2) + y(31) + 0 d(0) + 0 d(31) - 21 releaseDateAndCP
Subject To
 resR(0,0): 6 x(1,1,0) + 6 x(2,0,0) + 3 x(3,0,0) <= 31
 resR(0,1): 6 x(1,1,0) + 6 x(1,1,1) + 6 x(2,0,0) + 3 x(3,0,0) + 3 x(3,0,1)
   <= 31
 resR(0,2): 6 x(1,1,0) + 6 x(1,1,1) + 6 x(1,1,2) + 6 x(2,0,0) + 3 x(3,0,1)
   + 3 x(3,0,2) + 10 x(5,0,2) + 9 x(5,2,2) + 6 x(8,0,2) + 4 x(8,2,2) <= 31
 resR(0,3): 6 x(1,1,0) + 6 x(1,1,1) + 6 x(1,1,2) + 6 x(1,1,3) + 6 x(2,0,0)
   + 3 x(3,0,2) + 10 x(5,0,2) + 10 x(5,0,3) + 9 x(5,2,2) + 9 x(5,2,3)
   + 6 x(8,0,3) + 4 x(8,2,2) + 6 x(9,0,3) + 4 x(9,1,3) <= 31
 resR(0,4): 6 x(1,1,0) + 6 x(1,1,1) + 6 x(1,1,2) + 6 x(1,1,3) + 6 x(1,1,4)
   + 6 x(2,0,0) + 10 x(5,0,2) + 10 x(5,0,3) + 10 x(5,0,4) + 9 x(5,2,2)
   + 9 x(5,2,3) + 9 x(5,2,4) + 6 x(8,0,4) + 4 x(8,2,2) + 6 x(9,0,3)
   + 6 x(9,0,4) + 4 x(9,1,3) + 10 x(12,2,4) + 5 x(15,1,4) <= 31
 resR(0,5): 6 x(1,1,1) + 6 x(1,1,2) + 6 x(1,1,3) + 6 x(1,1,4) + 6 x(1,1,5)
   + 6 x(4,0,5) + 10 x(5,0,2) + 10 x(5,0,3) + 10 x(5,0,4) + 10 x(5,0,5)
   + 9 x(5,2,2) + 9 x(5,2,3) + 9 x(5,2,4) + 9 x(5,2,5) + 9 x(6,0,5)
   + 6 x(9,0,3) + 6 x(9,0,4) + 6 x(9,0,5) + 4 x(9,1,3) + 10 x(10,0,5)
   + 10 x(12,2,4) + 10 x(12,2,5) + 5 x(15,1,4) + 5 x(15,1,5) <= 31
 resR(0,6): 6 x(1,1,2) + 6 x(1,1,3) + 6 x(1,1,4) + 6 x(1,1,5) + 6 x(4,0,5)
   + 10 x(5,0,2) + 10 x(5,0,3) + 10 x(5,0,4) + 10 x(5,0,5) + 10 x(5,0,6)
   + 9 x(5,2,2) + 9 x(5,2,3) + 9 x(5,2,4) + 9 x(5,2,5) + 9 x(6,0,5)
   + 9 x(6,0,6) + 6 x(9,0,3) + 6 x(9,0,4) + 6 x(9,0,5) + 4 x(9,1,3)
   + 10 x(10,0,5) + 10 x(10,0,6) + 10 x(12,2,4) + 10 x(12,2,5)
   + 5 x(15,1,5) + 5 x(15,1,6) <= 31
 resR(0,7): 6 x(1,1,3) + 6 x(1,1,4) + 6 x(1,1,5) + 10 x(5,0,2)
   + 10 x(5,0,3) + 10 x(5,0,4) + 10 x(5,0,5) + 10 x(5,0,6) + 10 x(5,0,7)
   + 9 x(5,2,2) + 9 x(5,2,3) + 9 x(5,2,4) + 9 x(5,2,5) + 9 x(6,0,5)
   + 9 x(6,0,6) + 7 x(7,1,7) + 6 x(9,0,3) + 6 x(9,0,4) + 6 x(9,0,5)
   + 4 x(9,1,3) + 10 x(10,0,6) + 10 x(10,0,7) + 10 x(12,2,4) + 10 x(12,2,5)
   + 8 x(13,1,7) + 10 x(14,0,7) + 10 x(14,1,7) + 5 x(15,1,6) + 5 x(15,1,7)
   <= 31
 resR(0,8): 6 x(1,1,4) + 6 x(1,1,5) + 10 x(5,0,3) + 10 x(5,0,4)
   + 10 x(5,0,5) + 10 x(5,0,6) + 10 x(5,0,7) + 9 x(5,2,2) + 9 x(5,2,3)
   + 9 x(5,2,4) + 9 x(5,2,5) + 9 x(6,0,5) + 9 x(6,0,6) + 7 x(7,1,7)
   + 6 x(9,0,4) + 6 x(9,0,5) + 4 x(9,1,3) + 10 x(10,0,7) + 10 x(12,2,4)
   + 10 x(12,2,5) + 8 x(13,1,7) + 8 x(13,1,8) + 10 x(14,0,7) + 10 x(14,0,8)
   + 10 x(14,1,7) + 10 x(14,1,8) + 5 x(15,1,7) + 5 x(15,1,8) + 10 x(16,1,8)
   + 5 x(16,2,8) + 6 x(17,0,8) <= 31
 resR(0,9): 6 x(1,1,5) + 10 x(5,0,4) + 10 x(5,0,5) + 10 x(5,0,6)
   + 10 x(5,0,7) + 9 x(5,2,2) + 9 x(5,2,3) + 9 x(5,2,4) + 9 x(5,2,5)
   + 9 x(6,0,5) + 9 x(6,0,6) + 7 x(7,1,7) + 6 x(9,0,5) + 4 x(9,1,3)
   + 10 x(12,2,4) + 10 x(12,2,5) + 8 x(13,1,7) + 8 x(13,1,8) + 10 x(14,0,7)
   + 10 x(14,0,8) + 10 x(14,0,9) + 10 x(14,1,7) + 10 x(14,1,8)
   + 10 x(14,1,9) + 5 x(15,1,8) + 5 x(15,1,9) + 10 x(16,1,8) + 10 x(16,1,9)
   + 5 x(16,2,8) + 5 x(16,2,9) + 6 x(17,0,8) + 6 x(17,0,9) <= 31
 resR(0,10): 10 x(5,0,5) + 10 x(5,0,6) + 10 x(5,0,7) + 9 x(5,2,3)
   + 9 x(5,2,4) + 9 x(5,2,5) + 9 x(6,0,5) + 9 x(6,0,6) + 7 x(7,1,7)
   + 10 x(12,2,4) + 10 x(12,2,5) + 8 x(13,1,7) + 8 x(13,1,8) + 10 x(14,0,8)
   + 10 x(14,0,9) + 10 x(14,1,8) + 10 x(14,1,9) + 5 x(15,1,9)
   + 10 x(16,1,8) + 10 x(16,1,9) + 10 x(16,1,10) + 5 x(16,2,8)
   + 5 x(16,2,9) + 6 x(17,0,8) + 6 x(17,0,9) + 6 x(17,0,10) <= 31
 resR(0,11): 10 x(5,0,6) + 10 x(5,0,7) + 9 x(5,2,4) + 9 x(5,2,5)
   + 9 x(6,0,5) + 9 x(6,0,6) + 10 x(12,2,4) + 10 x(12,2,5) + 8 x(13,1,7)
   + 8 x(13,1,8) + 10 x(14,0,9) + 10 x(14,1,9) + 10 x(16,1,8)
   + 10 x(16,1,9) + 10 x(16,1,10) + 10 x(16,1,11) + 5 x(16,2,8)
   + 5 x(16,2,9) + 6 x(17,0,9) + 6 x(17,0,10) <= 31
 resR(0,12): 10 x(5,0,7) + 9 x(5,2,5) + 9 x(6,0,6) + 10 x(12,2,4)
   + 10 x(12,2,5) + 8 x(13,1,7) + 8 x(13,1,8) + 10 x(16,1,8) + 10 x(16,1,9)
   + 10 x(16,1,10) + 10 x(16,1,11) + 10 x(16,1,12) + 5 x(16,2,8)
   + 5 x(16,2,9) + 6 x(17,0,10) <= 31
 resR(0,13): 10 x(12,2,4) + 10 x(12,2,5) + 8 x(13,1,7) + 8 x(13,1,8)
   + 10 x(16,1,9) + 10 x(16,1,10) + 10 x(16,1,11) + 10 x(16,1,12)
   + 5 x(16,2,8) + 5 x(16,2,9) + 5 x(29,0,13) + 4 x(29,1,13) <= 31
 resR(0,14): 10 x(12,2,5) + 8 x(13,1,8) + 10 x(16,1,10) + 10 x(16,1,11)
   + 10 x(16,1,12) + 5 x(16,2,8) + 5 x(16,2,9) + 5 x(29,0,14)
   + 4 x(29,1,13) + 4 x(29,1,14) <= 31
 resR(0,15): 10 x(16,1,11) + 10 x(16,1,12) + 5 x(16,2,8) + 5 x(16,2,9)
   + 5 x(29,0,15) + 4 x(29,1,13) + 4 x(29,1,14) + 4 x(29,1,15) <= 31
 resR(0,16): 10 x(16,1,12) + 5 x(16,2,9) + 5 x(29,0,16) + 4 x(29,1,13)
   + 4 x(29,1,14) + 4 x(29,1,15) + 4 x(29,1,16) <= 31
 resR(0,17): 5 x(29,0,17) + 4 x(29,1,13) + 4 x(29,1,14) + 4 x(29,1,15)
   + 4 x(29,1,16) <= 31
 resR(0,18): 5 x(29,0,18) + 4 x(29,1,14) + 4 x(29,1,15) + 4 x(29,1,16)
   <= 31
 resR(0,19): 5 x(29,0,19) + 4 x(29,1,15) + 4 x(29,1,16) <= 31
 resR(0,20): 5 x(29,0,20) + 4 x(29,1,16) <= 31
 resR(1,0): 6 x(1,0,0) + 4 x(1,2,0) <= 20
 resR(1,1): 6 x(1,0,0) + 6 x(1,0,1) + 4 x(1,2,0) + 4 x(1,2,1) <= 20
 resR(1,2): 6 x(1,0,0) + 6 x(1,0,1) + 6 x(1,0,2) + 4 x(1,2,0) + 4 x(1,2,1)
   + 4 x(1,2,2) + 7 x(5,1,2) + 10 x(8,1,2) <= 20
 resR(1,3): 6 x(1,0,0) + 6 x(1,0,1) + 6 x(1,0,2) + 6 x(1,0,3) + 4 x(1,2,0)
   + 4 x(1,2,1) + 4 x(1,2,2) + 4 x(1,2,3) + 7 x(5,1,2) + 7 x(5,1,3)
   + 10 x(8,1,2) + 10 x(8,1,3) <= 20
 resR(1,4): 6 x(1,0,1) + 6 x(1,0,2) + 6 x(1,0,3) + 6 x(1,0,4) + 4 x(1,2,0)
   + 4 x(1,2,1) + 4 x(1,2,2) + 4 x(1,2,3) + 4 x(1,2,4) + 7 x(5,1,2)
   + 7 x(5,1,3) + 7 x(5,1,4) + 10 x(8,1,3) + 7 x(12,0,4) + 4 x(12,1,4)
   + 8 x(15,0,4) + 7 x(15,2,4) <= 20
 resR(1,5): 6 x(1,0,2) + 6 x(1,0,3) + 6 x(1,0,4) + 6 x(1,0,5) + 4 x(1,2,1)
   + 4 x(1,2,2) + 4 x(1,2,3) + 4 x(1,2,4) + 4 x(1,2,5) + 7 x(5,1,2)
   + 7 x(5,1,3) + 7 x(5,1,4) + 7 x(5,1,5) + 5 x(6,1,5) + 4 x(6,2,5)
   + 7 x(12,0,4) + 7 x(12,0,5) + 4 x(12,1,4) + 4 x(12,1,5) + 8 x(15,0,5)
   + 7 x(15,2,4) + 7 x(15,2,5) <= 20
 resR(1,6): 6 x(1,0,3) + 6 x(1,0,4) + 6 x(1,0,5) + 6 x(1,0,6) + 4 x(1,2,2)
   + 4 x(1,2,3) + 4 x(1,2,4) + 4 x(1,2,5) + 7 x(5,1,2) + 7 x(5,1,3)
   + 7 x(5,1,4) + 7 x(5,1,5) + 5 x(6,1,5) + 5 x(6,1,6) + 4 x(6,2,5)
   + 7 x(12,0,4) + 7 x(12,0,5) + 7 x(12,0,6) + 4 x(12,1,4) + 4 x(12,1,5)
   + 4 x(12,1,6) + 8 x(15,0,6) + 7 x(15,2,4) + 7 x(15,2,5) + 7 x(15,2,6)
   <= 20
 resR(1,7): 6 x(1,0,4) + 6 x(1,0,5) + 6 x(1,0,6) + 4 x(1,2,3) + 4 x(1,2,4)
   + 4 x(1,2,5) + 7 x(5,1,2) + 7 x(5,1,3) + 7 x(5,1,4) + 7 x(5,1,5)
   + 5 x(6,1,5) + 5 x(6,1,6) + 4 x(6,2,5) + 4 x(7,0,7) + 7 x(12,0,5)
   + 7 x(12,0,6) + 7 x(12,0,7) + 4 x(12,1,4) + 4 x(12,1,5) + 4 x(12,1,6)
   + 4 x(12,1,7) + 9 x(13,0,7) + 7 x(13,2,7) + x(14,2,7) + 8 x(15,0,7)
   + 7 x(15,2,5) + 7 x(15,2,6) + 7 x(15,2,7) <= 20
 resR(1,8): 6 x(1,0,5) + 6 x(1,0,6) + 4 x(1,2,4) + 4 x(1,2,5) + 7 x(5,1,2)
   + 7 x(5,1,3) + 7 x(5,1,4) + 7 x(5,1,5) + 5 x(6,1,5) + 5 x(6,1,6)
   + 4 x(6,2,5) + 4 x(7,0,7) + 7 x(12,0,6) + 7 x(12,0,7) + 7 x(12,0,8)
   + 4 x(12,1,5) + 4 x(12,1,6) + 4 x(12,1,7) + 4 x(12,1,8) + 9 x(13,0,7)
   + 9 x(13,0,8) + 7 x(13,2,7) + 7 x(13,2,8) + x(14,2,7) + 8 x(15,0,8)
   + 7 x(15,2,6) + 7 x(15,2,7) + 7 x(15,2,8) + 6 x(16,0,8) + 8 x(17,1,8)
   <= 20
 resR(1,9): 6 x(1,0,6) + 4 x(1,2,5) + 7 x(5,1,2) + 7 x(5,1,3) + 7 x(5,1,4)
   + 7 x(5,1,5) + 5 x(6,1,5) + 5 x(6,1,6) + 4 x(6,2,5) + 4 x(7,0,7)
   + 7 x(12,0,7) + 7 x(12,0,8) + 7 x(12,0,9) + 4 x(12,1,6) + 4 x(12,1,7)
   + 4 x(12,1,8) + 4 x(12,1,9) + 9 x(13,0,7) + 9 x(13,0,8) + 9 x(13,0,9)
   + 7 x(13,2,7) + 7 x(13,2,8) + x(14,2,7) + 8 x(15,0,9) + 7 x(15,2,7)
   + 7 x(15,2,8) + 6 x(16,0,8) + 6 x(16,0,9) + 8 x(17,1,8) <= 20
 resR(1,10): 7 x(5,1,3) + 7 x(5,1,4) + 7 x(5,1,5) + 5 x(6,1,5) + 5 x(6,1,6)
   + 4 x(6,2,5) + 4 x(7,0,7) + 7 x(12,0,8) + 7 x(12,0,9) + 7 x(12,0,10)
   + 4 x(12,1,7) + 4 x(12,1,8) + 4 x(12,1,9) + 4 x(12,1,10) + 9 x(13,0,8)
   + 9 x(13,0,9) + 9 x(13,0,10) + 7 x(13,2,7) + 7 x(13,2,8) + x(14,2,7)
   + 8 x(15,0,10) + 7 x(15,2,8) + 6 x(16,0,8) + 6 x(16,0,9) + 6 x(16,0,10)
   + 8 x(17,1,8) + 9 x(21,0,10) <= 20
 resR(1,11): 7 x(5,1,4) + 7 x(5,1,5) + 5 x(6,1,5) + 5 x(6,1,6) + 4 x(6,2,5)
   + 7 x(12,0,9) + 7 x(12,0,10) + 7 x(12,0,11) + 4 x(12,1,8) + 4 x(12,1,9)
   + 4 x(12,1,10) + 4 x(12,1,11) + 9 x(13,0,9) + 9 x(13,0,10)
   + 9 x(13,0,11) + 7 x(13,2,7) + 7 x(13,2,8) + x(14,2,7) + 6 x(16,0,8)
   + 6 x(16,0,9) + 6 x(16,0,10) + 6 x(16,0,11) + 8 x(17,1,8) + 9 x(18,0,11)
   + 3 x(19,0,11) + 9 x(21,0,10) + 9 x(21,0,11) + 6 x(23,0,11) <= 20
 resR(1,12): 7 x(5,1,5) + 5 x(6,1,6) + 4 x(6,2,5) + 5 x(11,0,12)
   + 7 x(12,0,10) + 7 x(12,0,11) + 7 x(12,0,12) + 4 x(12,1,9)
   + 4 x(12,1,10) + 4 x(12,1,11) + 9 x(13,0,10) + 9 x(13,0,11)
   + 9 x(13,0,12) + 7 x(13,2,7) + 7 x(13,2,8) + 6 x(16,0,9) + 6 x(16,0,10)
   + 6 x(16,0,11) + 6 x(16,0,12) + 8 x(17,1,8) + 3 x(19,0,12)
   + 10 x(20,0,12) + 9 x(21,0,11) + 9 x(21,0,12) + 6 x(23,0,11)
   + 6 x(23,0,12) + 4 x(24,0,12) <= 20
 resR(1,13): 5 x(11,0,13) + 7 x(12,0,11) + 7 x(12,0,12) + 4 x(12,1,10)
   + 4 x(12,1,11) + 9 x(13,0,11) + 9 x(13,0,12) + 7 x(13,2,7) + 7 x(13,2,8)
   + 6 x(16,0,10) + 6 x(16,0,11) + 6 x(16,0,12) + 6 x(16,0,13)
   + 3 x(19,0,13) + 9 x(21,0,12) + 7 x(22,0,13) + 6 x(23,0,12)
   + 6 x(23,0,13) + 4 x(24,0,13) + 7 x(25,0,13) <= 20
 resR(1,14): 7 x(12,0,12) + 4 x(12,1,11) + 9 x(13,0,12) + 7 x(13,2,8)
   + 6 x(16,0,11) + 6 x(16,0,12) + 6 x(16,0,13) + 3 x(19,0,14)
   + 7 x(22,0,14) + 6 x(23,0,13) + 4 x(24,0,14) + 7 x(25,0,13)
   + 7 x(26,0,14) <= 20
 resR(1,15): 6 x(16,0,12) + 6 x(16,0,13) + 3 x(19,0,15) + 4 x(24,0,15)
   + 7 x(26,0,15) + 8 x(27,0,15) + 10 x(30,0,15) + 7 x(30,1,15) <= 20
 resR(1,16): 6 x(16,0,13) + 4 x(24,0,16) + 6 x(28,0,16) + 10 x(30,0,15)
   + 10 x(30,0,16) + 7 x(30,1,15) + 7 x(30,1,16) <= 20
 resR(1,17): 6 x(28,0,16) + 10 x(30,0,15) + 10 x(30,0,16) + 10 x(30,0,17)
   + 7 x(30,1,15) + 7 x(30,1,16) <= 20
 resR(1,18): 6 x(28,0,16) + 10 x(30,0,15) + 10 x(30,0,16) + 10 x(30,0,17)
   + 7 x(30,1,15) + 7 x(30,1,16) <= 20
 resR(1,19): 6 x(28,0,16) + 10 x(30,0,16) + 10 x(30,0,17) + 7 x(30,1,15)
   + 7 x(30,1,16) <= 20
 resR(1,20): 6 x(28,0,16) + 10 x(30,0,17) + 7 x(30,1,16) <= 20
 modeSel(0): x(0,0,0) = 1
 modeSel(1): x(1,0,0) + x(1,0,1) + x(1,0,2) + x(1,0,3) + x(1,0,4)
   + x(1,0,5) + x(1,0,6) + x(1,1,0) + x(1,1,1) + x(1,1,2) + x(1,1,3)
   + x(1,1,4) + x(1,1,5) + x(1,2,0) + x(1,2,1) + x(1,2,2) + x(1,2,3)
   + x(1,2,4) + x(1,2,5) = 1
 modeSel(2): x(2,0,0) = 1
 modeSel(3): x(3,0,0) + x(3,0,1) + x(3,0,2) = 1
 modeSel(4): x(4,0,5) = 1
 modeSel(5): x(5,0,2) + x(5,0,3) + x(5,0,4) + x(5,0,5) + x(5,0,6)
   + x(5,0,7) + x(5,1,2) + x(5,1,3) + x(5,1,4) + x(5,1,5) + x(5,2,2)
   + x(5,2,3) + x(5,2,4) + x(5,2,5) = 1
 modeSel(6): x(6,0,5) + x(6,0,6) + x(6,1,5) + x(6,1,6) + x(6,2,5) = 1
 modeSel(7): x(7,0,7) + x(7,1,7) = 1
 modeSel(8): x(8,0,2) + x(8,0,3) + x(8,0,4) + x(8,1,2) + x(8,1,3)
   + x(8,2,2) = 1
 modeSel(9): x(9,0,3) + x(9,0,4) + x(9,0,5) + x(9,1,3) = 1
 modeSel(10): x(10,0,5) + x(10,0,6) + x(10,0,7) = 1
 modeSel(11): x(11,0,12) + x(11,0,13) = 1
 modeSel(12): x(12,0,4) + x(12,0,5) + x(12,0,6) + x(12,0,7) + x(12,0,8)
   + x(12,0,9) + x(12,0,10) + x(12,0,11) + x(12,0,12) + x(12,1,4)
   + x(12,1,5) + x(12,1,6) + x(12,1,7) + x(12,1,8) + x(12,1,9) + x(12,1,10)
   + x(12,1,11) + x(12,2,4) + x(12,2,5) = 1
 modeSel(13): x(13,0,7) + x(13,0,8) + x(13,0,9) + x(13,0,10) + x(13,0,11)
   + x(13,0,12) + x(13,1,7) + x(13,1,8) + x(13,2,7) + x(13,2,8) = 1
 modeSel(14): x(14,0,7) + x(14,0,8) + x(14,0,9) + x(14,1,7) + x(14,1,8)
   + x(14,1,9) + x(14,2,7) = 1
 modeSel(15): x(15,0,4) + x(15,0,5) + x(15,0,6) + x(15,0,7) + x(15,0,8)
   + x(15,0,9) + x(15,0,10) + x(15,1,4) + x(15,1,5) + x(15,1,6) + x(15,1,7)
   + x(15,1,8) + x(15,1,9) + x(15,2,4) + x(15,2,5) + x(15,2,6) + x(15,2,7)
   + x(15,2,8) = 1
 modeSel(16): x(16,0,8) + x(16,0,9) + x(16,0,10) + x(16,0,11) + x(16,0,12)
   + x(16,0,13) + x(16,1,8) + x(16,1,9) + x(16,1,10) + x(16,1,11)
   + x(16,1,12) + x(16,2,8) + x(16,2,9) = 1
 modeSel(17): x(17,0,8) + x(17,0,9) + x(17,0,10) + x(17,1,8) = 1
 modeSel(18): x(18,0,11) = 1
 modeSel(19): x(19,0,11) + x(19,0,12) + x(19,0,13) + x(19,0,14)
   + x(19,0,15) = 1
 modeSel(20): x(20,0,12) = 1
 modeSel(21): x(21,0,10) + x(21,0,11) + x(21,0,12) = 1
 modeSel(22): x(22,0,13) + x(22,0,14) = 1
 modeSel(23): x(23,0,11) + x(23,0,12) + x(23,0,13) = 1
 modeSel(24): x(24,0,12) + x(24,0,13) + x(24,0,14) + x(24,0,15)
   + x(24,0,16) = 1
 modeSel(25): x(25,0,13) = 1
 modeSel(26): x(26,0,14) + x(26,0,15) = 1
 modeSel(27): x(27,0,15) = 1
 modeSel(28): x(28,0,16) = 1
 modeSel(29): x(29,0,13) + x(29,0,14) + x(29,0,15) + x(29,0,16)
   + x(29,0,17) + x(29,0,18) + x(29,0,19) + x(29,0,20) + x(29,1,13)
   + x(29,1,14) + x(29,1,15) + x(29,1,16) = 1
 modeSel(30): x(30,0,15) + x(30,0,16) + x(30,0,17) + x(30,1,15)
   + x(30,1,16) = 1
 modeSel(31): x(31,0,21) = 1
 lnkXU(0,0): x(0,0,0) - u(0,0) = 0
 lnkXU(1,0): x(1,0,0) + x(1,0,1) + x(1,0,2) + x(1,0,3) + x(1,0,4)
   + x(1,0,5) + x(1,0,6) - u(1,0) = 0
 lnkXU(1,1): x(1,1,0) + x(1,1,1) + x(1,1,2) + x(1,1,3) + x(1,1,4)
   + x(1,1,5) - u(1,1) = 0
 lnkXU(1,2): x(1,2,0) + x(1,2,1) + x(1,2,2) + x(1,2,3) + x(1,2,4)
   + x(1,2,5) - u(1,2) = 0
 lnkXU(2,0): x(2,0,0) - u(2,0) = 0
 lnkXU(2,1): - u(2,1) = 0
 lnkXU(2,2): - u(2,2) = 0
 lnkXU(3,0): x(3,0,0) + x(3,0,1) + x(3,0,2) - u(3,0) = 0
 lnkXU(3,1): - u(3,1) = 0
 lnkXU(3,2): - u(3,2) = 0
 lnkXU(4,0): x(4,0,5) - u(4,0) = 0
 lnkXU(4,1): - u(4,1) = 0
 lnkXU(4,2): - u(4,2) = 0
 lnkXU(5,0): x(5,0,2) + x(5,0,3) + x(5,0,4) + x(5,0,5) + x(5,0,6)
   + x(5,0,7) - u(5,0) = 0
 lnkXU(5,1): x(5,1,2) + x(5,1,3) + x(5,1,4) + x(5,1,5) - u(5,1) = 0
 lnkXU(5,2): x(5,2,2) + x(5,2,3) + x(5,2,4) + x(5,2,5) - u(5,2) = 0
 lnkXU(6,0): x(6,0,5) + x(6,0,6) - u(6,0) = 0
 lnkXU(6,1): x(6,1,5) + x(6,1,6) - u(6,1) = 0
 lnkXU(6,2): x(6,2,5) - u(6,2) = 0
 lnkXU(7,0): x(7,0,7) - u(7,0) = 0
 lnkXU(7,1): x(7,1,7) - u(7,1) = 0
 lnkXU(7,2): - u(7,2) = 0
 lnkXU(8,0): x(8,0,2) + x(8,0,3) + x(8,0,4) - u(8,0) = 0
 lnkXU(8,1): x(8,1,2) + x(8,1,3) - u(8,1) = 0
 lnkXU(8,2): x(8,2,2) - u(8,2) = 0
 lnkXU(9,0): x(9,0,3) + x(9,0,4) + x(9,0,5) - u(9,0) = 0
 lnkXU(9,1): x(9,1,3) - u(9,1) = 0
 lnkXU(9,2): - u(9,2) = 0
 lnkXU(10,0): x(10,0,5) + x(10,0,6) + x(10,0,7) - u(10,0) = 0
 lnkXU(10,1): - u(10,1) = 0
 lnkXU(10,2): - u(10,2) = 0
 lnkXU(11,0): x(11,0,12) + x(11,0,13) - u(11,0) = 0
 lnkXU(11,1): - u(11,1) = 0
 lnkXU(11,2): - u(11,2) = 0
 lnkXU(12,0): x(12,0,4) + x(12,0,5) + x(12,0,6) + x(12,0,7) + x(12,0,8)
   + x(12,0,9) + x(12,0,10) + x(12,0,11) + x(12,0,12) - u(12,0) = 0
 lnkXU(12,1): x(12,1,4) + x(12,1,5) + x(12,1,6) + x(12,1,7) + x(12,1,8)
   + x(12,1,9) + x(12,1,10) + x(12,1,11) - u(12,1) = 0
 lnkXU(12,2): x(12,2,4) + x(12,2,5) - u(12,2) = 0
 lnkXU(13,0): x(13,0,7) + x(13,0,8) + x(13,0,9) + x(13,0,10) + x(13,0,11)
   + x(13,0,12) - u(13,0) = 0
 lnkXU(13,1): x(13,1,7) + x(13,1,8) - u(13,1) = 0
 lnkXU(13,2): x(13,2,7) + x(13,2,8) - u(13,2) = 0
 lnkXU(14,0): x(14,0,7) + x(14,0,8) + x(14,0,9) - u(14,0) = 0
 lnkXU(14,1): x(14,1,7) + x(14,1,8) + x(14,1,9) - u(14,1) = 0
 lnkXU(14,2): x(14,2,7) - u(14,2) = 0
 lnkXU(15,0): x(15,0,4) + x(15,0,5) + x(15,0,6) + x(15,0,7) + x(15,0,8)
   + x(15,0,9) + x(15,0,10) - u(15,0) = 0
 lnkXU(15,1): x(15,1,4) + x(15,1,5) + x(15,1,6) + x(15,1,7) + x(15,1,8)
   + x(15,1,9) - u(15,1) = 0
 lnkXU(15,2): x(15,2,4) + x(15,2,5) + x(15,2,6) + x(15,2,7) + x(15,2,8)
   - u(15,2) = 0
 lnkXU(16,0): x(16,0,8) + x(16,0,9) + x(16,0,10) + x(16,0,11) + x(16,0,12)
   + x(16,0,13) - u(16,0) = 0
 lnkXU(16,1): x(16,1,8) + x(16,1,9) + x(16,1,10) + x(16,1,11) + x(16,1,12)
   - u(16,1) = 0
 lnkXU(16,2): x(16,2,8) + x(16,2,9) - u(16,2) = 0
 lnkXU(17,0): x(17,0,8) + x(17,0,9) + x(17,0,10) - u(17,0) = 0
 lnkXU(17,1): x(17,1,8) - u(17,1) = 0
 lnkXU(17,2): - u(17,2) = 0
 lnkXU(18,0): x(18,0,11) - u(18,0) = 0
 lnkXU(18,1): - u(18,1) = 0
 lnkXU(18,2): - u(18,2) = 0
 lnkXU(19,0): x(19,0,11) + x(19,0,12) + x(19,0,13) + x(19,0,14)
   + x(19,0,15) - u(19,0) = 0
 lnkXU(19,1): - u(19,1) = 0
 lnkXU(19,2): - u(19,2) = 0
 lnkXU(20,0): x(20,0,12) - u(20,0) = 0
 lnkXU(20,1): - u(20,1) = 0
 lnkXU(20,2): - u(20,2) = 0
 lnkXU(21,0): x(21,0,10) + x(21,0,11) + x(21,0,12) - u(21,0) = 0
 lnkXU(21,1): - u(21,1) = 0
 lnkXU(21,2): - u(21,2) = 0
 lnkXU(22,0): x(22,0,13) + x(22,0,14) - u(22,0) = 0
 lnkXU(22,1): - u(22,1) = 0
 lnkXU(22,2): - u(22,2) = 0
 lnkXU(23,0): x(23,0,11) + x(23,0,12) + x(23,0,13) - u(23,0) = 0
 lnkXU(23,1): - u(23,1) = 0
 lnkXU(23,2): - u(23,2) = 0
 lnkXU(24,0): x(24,0,12) + x(24,0,13) + x(24,0,14) + x(24,0,15)
   + x(24,0,16) - u(24,0) = 0
 lnkXU(24,1): - u(24,1) = 0
 lnkXU(24,2): - u(24,2) = 0
 lnkXU(25,0): x(25,0,13) - u(25,0) = 0
 lnkXU(25,1): - u(25,1) = 0
 lnkXU(25,2): - u(25,2) = 0
 lnkXU(26,0): x(26,0,14) + x(26,0,15) - u(26,0) = 0
 lnkXU(26,1): - u(26,1) = 0
 lnkXU(26,2): - u(26,2) = 0
 lnkXU(27,0): x(27,0,15) - u(27,0) = 0
 lnkXU(27,1): - u(27,1) = 0
 lnkXU(27,2): - u(27,2) = 0
 lnkXU(28,0): x(28,0,16) - u(28,0) = 0
 lnkXU(28,1): - u(28,1) = 0
 lnkXU(28,2): - u(28,2) = 0
 lnkXU(29,0): x(29,0,13) + x(29,0,14) + x(29,0,15) + x(29,0,16)
   + x(29,0,17) + x(29,0,18) + x(29,0,19) + x(29,0,20) - u(29,0) = 0
 lnkXU(29,1): x(29,1,13) + x(29,1,14) + x(29,1,15) + x(29,1,16) - u(29,1)
   = 0
 lnkXU(29,2): - u(29,2) = 0
 lnkXU(30,0): x(30,0,15) + x(30,0,16) + x(30,0,17) - u(30,0) = 0
 lnkXU(30,1): x(30,1,15) + x(30,1,16) - u(30,1) = 0
 lnkXU(30,2): - u(30,2) = 0
 lnkXU(31,0): x(31,0,21) - u(31,0) = 0
 resN(0): u(1,0) + 8 u(2,2) + 6 u(3,1) + 3 u(4,0) + 3 u(4,1) + 3 u(4,2)
   + 8 u(5,1) + 9 u(6,0) + 9 u(6,2) + 7 u(8,1) + 5 u(9,0) + 3 u(9,2)
   + 6 u(10,1) + 5 u(10,2) + 4 u(11,2) + 7 u(12,0) + 5 u(13,1) + 6 u(13,2)
   + 5 u(14,1) + 5 u(15,0) + 4 u(15,1) + 4 u(15,2) + 8 u(19,0) + 9 u(20,0)
   + 8 u(20,1) + 2 u(21,1) + 6 u(22,1) + 4 u(22,2) + 7 u(23,1) + 3 u(24,2)
   + 8 u(25,1) + 7 u(25,2) + 4 u(26,0) + 2 u(26,1) + 2 u(26,2) + 7 u(27,0)
   + 6 u(27,2) + 8 u(29,0) + 5 u(30,0) + 5 u(30,2) <= 147
 resN(1): 5 u(1,1) + 2 u(1,2) + 8 u(2,0) + 5 u(2,1) + 5 u(3,0) + 5 u(3,2)
   + 9 u(5,0) + 5 u(5,2) + 5 u(6,1) + 8 u(7,0) + 8 u(7,1) + 8 u(7,2)
   + 3 u(8,0) + 2 u(8,2) + u(9,1) + 2 u(10,0) + 4 u(11,0) + 2 u(11,1)
   + 10 u(12,1) + 9 u(12,2) + 8 u(13,0) + 7 u(14,0) + 8 u(14,2) + 7 u(16,0)
   + 5 u(16,1) + 5 u(16,2) + 8 u(17,0) + 8 u(17,1) + 6 u(17,2) + 3 u(18,0)
   + 2 u(18,1) + u(18,2) + 8 u(19,1) + 7 u(19,2) + 7 u(20,2) + 8 u(21,0)
   + 6 u(21,2) + 10 u(22,0) + 6 u(23,0) + 5 u(23,2) + 6 u(24,0) + 6 u(24,1)
   + u(25,0) + 8 u(27,1) + 6 u(28,0) + 3 u(28,1) + 2 u(28,2) + 9 u(29,1)
   + 8 u(29,2) + 6 u(30,1) <= 169
 lnkXY(1): x(1,0,1) + 2 x(1,0,2) + 3 x(1,0,3) + 4 x(1,0,4) + 5 x(1,0,5)
   + 6 x(1,0,6) + x(1,1,1) + 2 x(1,1,2) + 3 x(1,1,3) + 4 x(1,1,4)
   + 5 x(1,1,5) + x(1,2,1) + 2 x(1,2,2) + 3 x(1,2,3) + 4 x(1,2,4)
   + 5 x(1,2,5) - y(1) = 0
 lnkXY(3): x(3,0,1) + 2 x(3,0,2) - y(3) = 0
 lnkXY(4): 5 x(4,0,5) - y(4) = 0
 lnkXY(5): 2 x(5,0,2) + 3 x(5,0,3) + 4 x(5,0,4) + 5 x(5,0,5) + 6 x(5,0,6)
   + 7 x(5,0,7) + 2 x(5,1,2) + 3 x(5,1,3) + 4 x(5,1,4) + 5 x(5,1,5)
   + 2 x(5,2,2) + 3 x(5,2,3) + 4 x(5,2,4) + 5 x(5,2,5) - y(5) = 0
 lnkXY(6): 5 x(6,0,5) + 6 x(6,0,6) + 5 x(6,1,5) + 6 x(6,1,6) + 5 x(6,2,5)
   - y(6) = 0
 lnkXY(7): 7 x(7,0,7) + 7 x(7,1,7) - y(7) = 0
 lnkXY(8): 2 x(8,0,2) + 3 x(8,0,3) + 4 x(8,0,4) + 2 x(8,1,2) + 3 x(8,1,3)
   + 2 x(8,2,2) - y(8) = 0
 lnkXY(9): 3 x(9,0,3) + 4 x(9,0,4) + 5 x(9,0,5) + 3 x(9,1,3) - y(9) = 0
 lnkXY(10): 5 x(10,0,5) + 6 x(10,0,6) + 7 x(10,0,7) - y(10) = 0
 lnkXY(11): 12 x(11,0,12) + 13 x(11,0,13) - y(11) = 0
 lnkXY(12): 4 x(12,0,4) + 5 x(12,0,5) + 6 x(12,0,6) + 7 x(12,0,7)
   + 8 x(12,0,8) + 9 x(12,0,9) + 10 x(12,0,10) + 11 x(12,0,11)
   + 12 x(12,0,12) + 4 x(12,1,4) + 5 x(12,1,5) + 6 x(12,1,6) + 7 x(12,1,7)
   + 8 x(12,1,8) + 9 x(12,1,9) + 10 x(12,1,10) + 11 x(12,1,11)
   + 4 x(12,2,4) + 5 x(12,2,5) - y(12) = 0
 lnkXY(13): 7 x(13,0,7) + 8 x(13,0,8) + 9 x(13,0,9) + 10 x(13,0,10)
   + 11 x(13,0,11) + 12 x(13,0,12) + 7 x(13,1,7) + 8 x(13,1,8)
   + 7 x(13,2,7) + 8 x(13,2,8) - y(13) = 0
 lnkXY(14): 7 x(14,0,7) + 8 x(14,0,8) + 9 x(14,0,9) + 7 x(14,1,7)
   + 8 x(14,1,8) + 9 x(14,1,9) + 7 x(14,2,7) - y(14) = 0
 lnkXY(15): 4 x(15,0,4) + 5 x(15,0,5) + 6 x(15,0,6) + 7 x(15,0,7)
   + 8 x(15,0,8) + 9 x(15,0,9) + 10 x(15,0,10) + 4 x(15,1,4) + 5 x(15,1,5)
   + 6 x(15,1,6) + 7 x(15,1,7) + 8 x(15,1,8) + 9 x(15,1,9) + 4 x(15,2,4)
   + 5 x(15,2,5) + 6 x(15,2,6) + 7 x(15,2,7) + 8 x(15,2,8) - y(15) = 0
 lnkXY(16): 8 x(16,0,8) + 9 x(16,0,9) + 10 x(16,0,10) + 11 x(16,0,11)
   + 12 x(16,0,12) + 13 x(16,0,13) + 8 x(16,1,8) + 9 x(16,1,9)
   + 10 x(16,1,10) + 11 x(16,1,11) + 12 x(16,1,12) + 8 x(16,2,8)
   + 9 x(16,2,9) - y(16) = 0
 lnkXY(17): 8 x(17,0,8) + 9 x(17,0,9) + 10 x(17,0,10) + 8 x(17,1,8) - y(17)
   = 0
 lnkXY(18): 11 x(18,0,11) - y(18) = 0
 lnkXY(19): 11 x(19,0,11) + 12 x(19,0,12) + 13 x(19,0,13) + 14 x(19,0,14)
   + 15 x(19,0,15) - y(19) = 0
 lnkXY(20): 12 x(20,0,12) - y(20) = 0
 lnkXY(21): 10 x(21,0,10) + 11 x(21,0,11) + 12 x(21,0,12) - y(21) = 0
 lnkXY(22): 13 x(22,0,13) + 14 x(22,0,14) - y(22) = 0
 lnkXY(23): 11 x(23,0,11) + 12 x(23,0,12) + 13 x(23,0,13) - y(23) = 0
 lnkXY(24): 12 x(24,0,12) + 13 x(24,0,13) + 14 x(24,0,14) + 15 x(24,0,15)
   + 16 x(24,0,16) - y(24) = 0
 lnkXY(25): 13 x(25,0,13) - y(25) = 0
 lnkXY(26): 14 x(26,0,14) + 15 x(26,0,15) - y(26) = 0
 lnkXY(27): 15 x(27,0,15) - y(27) = 0
 lnkXY(28): 16 x(28,0,16) - y(28) = 0
 lnkXY(29): 13 x(29,0,13) + 14 x(29,0,14) + 15 x(29,0,15) + 16 x(29,0,16)
   + 17 x(29,0,17) + 18 x(29,0,18) + 19 x(29,0,19) + 20 x(29,0,20)
   + 13 x(29,1,13) + 14 x(29,1,14) + 15 x(29,1,15) + 16 x(29,1,16) - y(29)
   = 0
 lnkXY(30): 15 x(30,0,15) + 16 x(30,0,16) + 17 x(30,0,17) + 15 x(30,1,15)
   + 16 x(30,1,16) - y(30) = 0
 lnkXY(31): 21 x(31,0,21) - y(31) = 0
 lnkXD(1): 4 x(1,0,0) + 4 x(1,0,1) + 4 x(1,0,2) + 4 x(1,0,3) + 4 x(1,0,4)
   + 4 x(1,0,5) + 4 x(1,0,6) + 5 x(1,1,0) + 5 x(1,1,1) + 5 x(1,1,2)
   + 5 x(1,1,3) + 5 x(1,1,4) + 5 x(1,1,5) + 5 x(1,2,0) + 5 x(1,2,1)
   + 5 x(1,2,2) + 5 x(1,2,3) + 5 x(1,2,4) + 5 x(1,2,5) - d(1) = 0
 lnkXD(2): 5 x(2,0,0) - d(2) = 0
 lnkXD(3): 2 x(3,0,0) + 2 x(3,0,1) + 2 x(3,0,2) - d(3) = 0
 lnkXD(4): 2 x(4,0,5) - d(4) = 0
 lnkXD(5): 6 x(5,0,2) + 6 x(5,0,3) + 6 x(5,0,4) + 6 x(5,0,5) + 6 x(5,0,6)
   + 6 x(5,0,7) + 8 x(5,1,2) + 8 x(5,1,3) + 8 x(5,1,4) + 8 x(5,1,5)
   + 8 x(5,2,2) + 8 x(5,2,3) + 8 x(5,2,4) + 8 x(5,2,5) - d(5) = 0
 lnkXD(6): 7 x(6,0,5) + 7 x(6,0,6) + 7 x(6,1,5) + 7 x(6,1,6) + 8 x(6,2,5)
   - d(6) = 0
 lnkXD(7): 4 x(7,0,7) + 4 x(7,1,7) - d(7) = 0
 lnkXD(8): x(8,0,2) + x(8,0,3) + x(8,0,4) + 2 x(8,1,2) + 2 x(8,1,3)
   + 3 x(8,2,2) - d(8) = 0
 lnkXD(9): 5 x(9,0,3) + 5 x(9,0,4) + 5 x(9,0,5) + 7 x(9,1,3) - d(9) = 0
 lnkXD(10): 2 x(10,0,5) + 2 x(10,0,6) + 2 x(10,0,7) - d(10) = 0
 lnkXD(11): x(11,0,12) + x(11,0,13) - d(11) = 0
 lnkXD(12): 3 x(12,0,4) + 3 x(12,0,5) + 3 x(12,0,6) + 3 x(12,0,7)
   + 3 x(12,0,8) + 3 x(12,0,9) + 3 x(12,0,10) + 3 x(12,0,11) + 3 x(12,0,12)
   + 4 x(12,1,4) + 4 x(12,1,5) + 4 x(12,1,6) + 4 x(12,1,7) + 4 x(12,1,8)
   + 4 x(12,1,9) + 4 x(12,1,10) + 4 x(12,1,11) + 10 x(12,2,4)
   + 10 x(12,2,5) - d(12) = 0
 lnkXD(13): 3 x(13,0,7) + 3 x(13,0,8) + 3 x(13,0,9) + 3 x(13,0,10)
   + 3 x(13,0,11) + 3 x(13,0,12) + 7 x(13,1,7) + 7 x(13,1,8) + 7 x(13,2,7)
   + 7 x(13,2,8) - d(13) = 0
 lnkXD(14): 3 x(14,0,7) + 3 x(14,0,8) + 3 x(14,0,9) + 3 x(14,1,7)
   + 3 x(14,1,8) + 3 x(14,1,9) + 5 x(14,2,7) - d(14) = 0
 lnkXD(15): x(15,0,4) + x(15,0,5) + x(15,0,6) + x(15,0,7) + x(15,0,8)
   + x(15,0,9) + x(15,0,10) + 2 x(15,1,4) + 2 x(15,1,5) + 2 x(15,1,6)
   + 2 x(15,1,7) + 2 x(15,1,8) + 2 x(15,1,9) + 3 x(15,2,4) + 3 x(15,2,5)
   + 3 x(15,2,6) + 3 x(15,2,7) + 3 x(15,2,8) - d(15) = 0
 lnkXD(16): 4 x(16,0,8) + 4 x(16,0,9) + 4 x(16,0,10) + 4 x(16,0,11)
   + 4 x(16,0,12) + 4 x(16,0,13) + 5 x(16,1,8) + 5 x(16,1,9) + 5 x(16,1,10)
   + 5 x(16,1,11) + 5 x(16,1,12) + 8 x(16,2,8) + 8 x(16,2,9) - d(16) = 0
 lnkXD(17): 3 x(17,0,8) + 3 x(17,0,9) + 3 x(17,0,10) + 5 x(17,1,8) - d(17)
   = 0
 lnkXD(18): x(18,0,11) - d(18) = 0
 lnkXD(19): x(19,0,11) + x(19,0,12) + x(19,0,13) + x(19,0,14) + x(19,0,15)
   - d(19) = 0
 lnkXD(20): x(20,0,12) - d(20) = 0
 lnkXD(21): 2 x(21,0,10) + 2 x(21,0,11) + 2 x(21,0,12) - d(21) = 0
 lnkXD(22): x(22,0,13) + x(22,0,14) - d(22) = 0
 lnkXD(23): 2 x(23,0,11) + 2 x(23,0,12) + 2 x(23,0,13) - d(23) = 0
 lnkXD(24): x(24,0,12) + x(24,0,13) + x(24,0,14) + x(24,0,15) + x(24,0,16)
   - d(24) = 0
 lnkXD(25): 2 x(25,0,13) - d(25) = 0
 lnkXD(26): x(26,0,14) + x(26,0,15) - d(26) = 0
 lnkXD(27): x(27,0,15) - d(27) = 0
 lnkXD(28): 5 x(28,0,16) - d(28) = 0
 lnkXD(29): x(29,0,13) + x(29,0,14) + x(29,0,15) + x(29,0,16) + x(29,0,17)
   + x(29,0,18) + x(29,0,19) + x(29,0,20) + 5 x(29,1,13) + 5 x(29,1,14)
   + 5 x(29,1,15) + 5 x(29,1,16) - d(29) = 0
 lnkXD(30): 4 x(30,0,15) + 4 x(30,0,16) + 4 x(30,0,17) + 5 x(30,1,15)
   + 5 x(30,1,16) - d(30) = 0
 precT(1,12): 4 x(1,0,0) + 5 x(1,0,1) + 6 x(1,0,2) + 7 x(1,0,3)
   + 8 x(1,0,4) + 9 x(1,0,5) + 10 x(1,0,6) + 5 x(1,1,0) + 6 x(1,1,1)
   + 7 x(1,1,2) + 8 x(1,1,3) + 9 x(1,1,4) + 10 x(1,1,5) + 5 x(1,2,0)
   + 6 x(1,2,1) + 7 x(1,2,2) + 8 x(1,2,3) + 9 x(1,2,4) + 10 x(1,2,5)
   - 4 x(12,0,4) - 5 x(12,0,5) - 6 x(12,0,6) - 7 x(12,0,7) - 8 x(12,0,8)
   - 9 x(12,0,9) - 10 x(12,0,10) - 11 x(12,0,11) - 12 x(12,0,12)
   - 4 x(12,1,4) - 5 x(12,1,5) - 6 x(12,1,6) - 7 x(12,1,7) - 8 x(12,1,8)
   - 9 x(12,1,9) - 10 x(12,1,10) - 11 x(12,1,11) - 4 x(12,2,4)
   - 5 x(12,2,5) <= 0
 precT(1,15): 4 x(1,0,0) + 5 x(1,0,1) + 6 x(1,0,2) + 7 x(1,0,3)
   + 8 x(1,0,4) + 9 x(1,0,5) + 10 x(1,0,6) + 5 x(1,1,0) + 6 x(1,1,1)
   + 7 x(1,1,2) + 8 x(1,1,3) + 9 x(1,1,4) + 10 x(1,1,5) + 5 x(1,2,0)
   + 6 x(1,2,1) + 7 x(1,2,2) + 8 x(1,2,3) + 9 x(1,2,4) + 10 x(1,2,5)
   - 4 x(15,0,4) - 5 x(15,0,5) - 6 x(15,0,6) - 7 x(15,0,7) - 8 x(15,0,8)
   - 9 x(15,0,9) - 10 x(15,0,10) - 4 x(15,1,4) - 5 x(15,1,5) - 6 x(15,1,6)
   - 7 x(15,1,7) - 8 x(15,1,8) - 9 x(15,1,9) - 4 x(15,2,4) - 5 x(15,2,5)
   - 6 x(15,2,6) - 7 x(15,2,7) - 8 x(15,2,8) <= 0
 precT(2,4): 5 x(2,0,0) - 5 x(4,0,5) <= 0
 precT(2,6): 5 x(2,0,0) - 5 x(6,0,5) - 6 x(6,0,6) - 5 x(6,1,5) - 6 x(6,1,6)
   - 5 x(6,2,5) <= 0
 precT(2,10): 5 x(2,0,0) - 5 x(10,0,5) - 6 x(10,0,6) - 7 x(10,0,7) <= 0
 precT(3,5): 2 x(3,0,0) + 3 x(3,0,1) + 4 x(3,0,2) - 2 x(5,0,2) - 3 x(5,0,3)
   - 4 x(5,0,4) - 5 x(5,0,5) - 6 x(5,0,6) - 7 x(5,0,7) - 2 x(5,1,2)
   - 3 x(5,1,3) - 4 x(5,1,4) - 5 x(5,1,5) - 2 x(5,2,2) - 3 x(5,2,3)
   - 4 x(5,2,4) - 5 x(5,2,5) <= 0
 precT(3,6): 2 x(3,0,0) + 3 x(3,0,1) + 4 x(3,0,2) - 5 x(6,0,5) - 6 x(6,0,6)
   - 5 x(6,1,5) - 6 x(6,1,6) - 5 x(6,2,5) <= 0
 precT(3,8): 2 x(3,0,0) + 3 x(3,0,1) + 4 x(3,0,2) - 2 x(8,0,2) - 3 x(8,0,3)
   - 4 x(8,0,4) - 2 x(8,1,2) - 3 x(8,1,3) - 2 x(8,2,2) <= 0
 precT(4,7): 7 x(4,0,5) - 7 x(7,0,7) - 7 x(7,1,7) <= 0
 precT(4,26): 7 x(4,0,5) - 14 x(26,0,14) - 15 x(26,0,15) <= 0
 precT(5,16): 8 x(5,0,2) + 9 x(5,0,3) + 10 x(5,0,4) + 11 x(5,0,5)
   + 12 x(5,0,6) + 13 x(5,0,7) + 10 x(5,1,2) + 11 x(5,1,3) + 12 x(5,1,4)
   + 13 x(5,1,5) + 10 x(5,2,2) + 11 x(5,2,3) + 12 x(5,2,4) + 13 x(5,2,5)
   - 8 x(16,0,8) - 9 x(16,0,9) - 10 x(16,0,10) - 11 x(16,0,11)
   - 12 x(16,0,12) - 13 x(16,0,13) - 8 x(16,1,8) - 9 x(16,1,9)
   - 10 x(16,1,10) - 11 x(16,1,11) - 12 x(16,1,12) - 8 x(16,2,8)
   - 9 x(16,2,9) <= 0
 precT(5,25): 8 x(5,0,2) + 9 x(5,0,3) + 10 x(5,0,4) + 11 x(5,0,5)
   + 12 x(5,0,6) + 13 x(5,0,7) + 10 x(5,1,2) + 11 x(5,1,3) + 12 x(5,1,4)
   + 13 x(5,1,5) + 10 x(5,2,2) + 11 x(5,2,3) + 12 x(5,2,4) + 13 x(5,2,5)
   - 13 x(25,0,13) <= 0
 precT(6,11): 12 x(6,0,5) + 13 x(6,0,6) + 12 x(6,1,5) + 13 x(6,1,6)
   + 13 x(6,2,5) - 12 x(11,0,12) - 13 x(11,0,13) <= 0
 precT(6,24): 12 x(6,0,5) + 13 x(6,0,6) + 12 x(6,1,5) + 13 x(6,1,6)
   + 13 x(6,2,5) - 12 x(24,0,12) - 13 x(24,0,13) - 14 x(24,0,14)
   - 15 x(24,0,15) - 16 x(24,0,16) <= 0
 precT(7,18): 11 x(7,0,7) + 11 x(7,1,7) - 11 x(18,0,11) <= 0
 precT(7,23): 11 x(7,0,7) + 11 x(7,1,7) - 11 x(23,0,11) - 12 x(23,0,12)
   - 13 x(23,0,13) <= 0
 precT(8,9): 3 x(8,0,2) + 4 x(8,0,3) + 5 x(8,0,4) + 4 x(8,1,2) + 5 x(8,1,3)
   + 5 x(8,2,2) - 3 x(9,0,3) - 4 x(9,0,4) - 5 x(9,0,5) - 3 x(9,1,3) <= 0
 precT(9,11): 8 x(9,0,3) + 9 x(9,0,4) + 10 x(9,0,5) + 10 x(9,1,3)
   - 12 x(11,0,12) - 13 x(11,0,13) <= 0
 precT(9,16): 8 x(9,0,3) + 9 x(9,0,4) + 10 x(9,0,5) + 10 x(9,1,3)
   - 8 x(16,0,8) - 9 x(16,0,9) - 10 x(16,0,10) - 11 x(16,0,11)
   - 12 x(16,0,12) - 13 x(16,0,13) - 8 x(16,1,8) - 9 x(16,1,9)
   - 10 x(16,1,10) - 11 x(16,1,11) - 12 x(16,1,12) - 8 x(16,2,8)
   - 9 x(16,2,9) <= 0
 precT(9,17): 8 x(9,0,3) + 9 x(9,0,4) + 10 x(9,0,5) + 10 x(9,1,3)
   - 8 x(17,0,8) - 9 x(17,0,9) - 10 x(17,0,10) - 8 x(17,1,8) <= 0
 precT(10,13): 7 x(10,0,5) + 8 x(10,0,6) + 9 x(10,0,7) - 7 x(13,0,7)
   - 8 x(13,0,8) - 9 x(13,0,9) - 10 x(13,0,10) - 11 x(13,0,11)
   - 12 x(13,0,12) - 7 x(13,1,7) - 8 x(13,1,8) - 7 x(13,2,7) - 8 x(13,2,8)
   <= 0
 precT(10,14): 7 x(10,0,5) + 8 x(10,0,6) + 9 x(10,0,7) - 7 x(14,0,7)
   - 8 x(14,0,8) - 9 x(14,0,9) - 7 x(14,1,7) - 8 x(14,1,8) - 9 x(14,1,9)
   - 7 x(14,2,7) <= 0
 precT(10,18): 7 x(10,0,5) + 8 x(10,0,6) + 9 x(10,0,7) - 11 x(18,0,11)
   <= 0
 precT(11,22): 13 x(11,0,12) + 14 x(11,0,13) - 13 x(22,0,13)
   - 14 x(22,0,14) <= 0
 precT(12,26): 7 x(12,0,4) + 8 x(12,0,5) + 9 x(12,0,6) + 10 x(12,0,7)
   + 11 x(12,0,8) + 12 x(12,0,9) + 13 x(12,0,10) + 14 x(12,0,11)
   + 15 x(12,0,12) + 8 x(12,1,4) + 9 x(12,1,5) + 10 x(12,1,6)
   + 11 x(12,1,7) + 12 x(12,1,8) + 13 x(12,1,9) + 14 x(12,1,10)
   + 15 x(12,1,11) + 14 x(12,2,4) + 15 x(12,2,5) - 14 x(26,0,14)
   - 15 x(26,0,15) <= 0
 precT(12,29): 7 x(12,0,4) + 8 x(12,0,5) + 9 x(12,0,6) + 10 x(12,0,7)
   + 11 x(12,0,8) + 12 x(12,0,9) + 13 x(12,0,10) + 14 x(12,0,11)
   + 15 x(12,0,12) + 8 x(12,1,4) + 9 x(12,1,5) + 10 x(12,1,6)
   + 11 x(12,1,7) + 12 x(12,1,8) + 13 x(12,1,9) + 14 x(12,1,10)
   + 15 x(12,1,11) + 14 x(12,2,4) + 15 x(12,2,5) - 13 x(29,0,13)
   - 14 x(29,0,14) - 15 x(29,0,15) - 16 x(29,0,16) - 17 x(29,0,17)
   - 18 x(29,0,18) - 19 x(29,0,19) - 20 x(29,0,20) - 13 x(29,1,13)
   - 14 x(29,1,14) - 15 x(29,1,15) - 16 x(29,1,16) <= 0
 precT(13,19): 10 x(13,0,7) + 11 x(13,0,8) + 12 x(13,0,9) + 13 x(13,0,10)
   + 14 x(13,0,11) + 15 x(13,0,12) + 14 x(13,1,7) + 15 x(13,1,8)
   + 14 x(13,2,7) + 15 x(13,2,8) - 11 x(19,0,11) - 12 x(19,0,12)
   - 13 x(19,0,13) - 14 x(19,0,14) - 15 x(19,0,15) <= 0
 precT(13,29): 10 x(13,0,7) + 11 x(13,0,8) + 12 x(13,0,9) + 13 x(13,0,10)
   + 14 x(13,0,11) + 15 x(13,0,12) + 14 x(13,1,7) + 15 x(13,1,8)
   + 14 x(13,2,7) + 15 x(13,2,8) - 13 x(29,0,13) - 14 x(29,0,14)
   - 15 x(29,0,15) - 16 x(29,0,16) - 17 x(29,0,17) - 18 x(29,0,18)
   - 19 x(29,0,19) - 20 x(29,0,20) - 13 x(29,1,13) - 14 x(29,1,14)
   - 15 x(29,1,15) - 16 x(29,1,16) <= 0
 precT(14,20): 10 x(14,0,7) + 11 x(14,0,8) + 12 x(14,0,9) + 10 x(14,1,7)
   + 11 x(14,1,8) + 12 x(14,1,9) + 12 x(14,2,7) - 12 x(20,0,12) <= 0
 precT(14,21): 10 x(14,0,7) + 11 x(14,0,8) + 12 x(14,0,9) + 10 x(14,1,7)
   + 11 x(14,1,8) + 12 x(14,1,9) + 12 x(14,2,7) - 10 x(21,0,10)
   - 11 x(21,0,11) - 12 x(21,0,12) <= 0
 precT(15,18): 5 x(15,0,4) + 6 x(15,0,5) + 7 x(15,0,6) + 8 x(15,0,7)
   + 9 x(15,0,8) + 10 x(15,0,9) + 11 x(15,0,10) + 6 x(15,1,4) + 7 x(15,1,5)
   + 8 x(15,1,6) + 9 x(15,1,7) + 10 x(15,1,8) + 11 x(15,1,9) + 7 x(15,2,4)
   + 8 x(15,2,5) + 9 x(15,2,6) + 10 x(15,2,7) + 11 x(15,2,8)
   - 11 x(18,0,11) <= 0
 precT(15,19): 5 x(15,0,4) + 6 x(15,0,5) + 7 x(15,0,6) + 8 x(15,0,7)
   + 9 x(15,0,8) + 10 x(15,0,9) + 11 x(15,0,10) + 6 x(15,1,4) + 7 x(15,1,5)
   + 8 x(15,1,6) + 9 x(15,1,7) + 10 x(15,1,8) + 11 x(15,1,9) + 7 x(15,2,4)
   + 8 x(15,2,5) + 9 x(15,2,6) + 10 x(15,2,7) + 11 x(15,2,8)
   - 11 x(19,0,11) - 12 x(19,0,12) - 13 x(19,0,13) - 14 x(19,0,14)
   - 15 x(19,0,15) <= 0
 precT(15,21): 5 x(15,0,4) + 6 x(15,0,5) + 7 x(15,0,6) + 8 x(15,0,7)
   + 9 x(15,0,8) + 10 x(15,0,9) + 11 x(15,0,10) + 6 x(15,1,4) + 7 x(15,1,5)
   + 8 x(15,1,6) + 9 x(15,1,7) + 10 x(15,1,8) + 11 x(15,1,9) + 7 x(15,2,4)
   + 8 x(15,2,5) + 9 x(15,2,6) + 10 x(15,2,7) + 11 x(15,2,8)
   - 10 x(21,0,10) - 11 x(21,0,11) - 12 x(21,0,12) <= 0
 precT(16,30): 12 x(16,0,8) + 13 x(16,0,9) + 14 x(16,0,10) + 15 x(16,0,11)
   + 16 x(16,0,12) + 17 x(16,0,13) + 13 x(16,1,8) + 14 x(16,1,9)
   + 15 x(16,1,10) + 16 x(16,1,11) + 17 x(16,1,12) + 16 x(16,2,8)
   + 17 x(16,2,9) - 15 x(30,0,15) - 16 x(30,0,16) - 17 x(30,0,17)
   - 15 x(30,1,15) - 16 x(30,1,16) <= 0
 precT(17,19): 11 x(17,0,8) + 12 x(17,0,9) + 13 x(17,0,10) + 13 x(17,1,8)
   - 11 x(19,0,11) - 12 x(19,0,12) - 13 x(19,0,13) - 14 x(19,0,14)
   - 15 x(19,0,15) <= 0
 precT(17,22): 11 x(17,0,8) + 12 x(17,0,9) + 13 x(17,0,10) + 13 x(17,1,8)
   - 13 x(22,0,13) - 14 x(22,0,14) <= 0
 precT(17,23): 11 x(17,0,8) + 12 x(17,0,9) + 13 x(17,0,10) + 13 x(17,1,8)
   - 11 x(23,0,11) - 12 x(23,0,12) - 13 x(23,0,13) <= 0
 precT(18,20): 12 x(18,0,11) - 12 x(20,0,12) <= 0
 precT(18,24): 12 x(18,0,11) - 12 x(24,0,12) - 13 x(24,0,13)
   - 14 x(24,0,14) - 15 x(24,0,15) - 16 x(24,0,16) <= 0
 precT(19,28): 12 x(19,0,11) + 13 x(19,0,12) + 14 x(19,0,13)
   + 15 x(19,0,14) + 16 x(19,0,15) - 16 x(28,0,16) <= 0
 precT(20,25): 13 x(20,0,12) - 13 x(25,0,13) <= 0
 precT(20,29): 13 x(20,0,12) - 13 x(29,0,13) - 14 x(29,0,14)
   - 15 x(29,0,15) - 16 x(29,0,16) - 17 x(29,0,17) - 18 x(29,0,18)
   - 19 x(29,0,19) - 20 x(29,0,20) - 13 x(29,1,13) - 14 x(29,1,14)
   - 15 x(29,1,15) - 16 x(29,1,16) <= 0
 precT(21,22): 12 x(21,0,10) + 13 x(21,0,11) + 14 x(21,0,12)
   - 13 x(22,0,13) - 14 x(22,0,14) <= 0
 precT(21,24): 12 x(21,0,10) + 13 x(21,0,11) + 14 x(21,0,12)
   - 12 x(24,0,12) - 13 x(24,0,13) - 14 x(24,0,14) - 15 x(24,0,15)
   - 16 x(24,0,16) <= 0
 precT(22,26): 14 x(22,0,13) + 15 x(22,0,14) - 14 x(26,0,14)
   - 15 x(26,0,15) <= 0
 precT(22,27): 14 x(22,0,13) + 15 x(22,0,14) - 15 x(27,0,15) <= 0
 precT(23,27): 13 x(23,0,11) + 14 x(23,0,12) + 15 x(23,0,13)
   - 15 x(27,0,15) <= 0
 precT(24,30): 13 x(24,0,12) + 14 x(24,0,13) + 15 x(24,0,14)
   + 16 x(24,0,15) + 17 x(24,0,16) - 15 x(30,0,15) - 16 x(30,0,16)
   - 17 x(30,0,17) - 15 x(30,1,15) - 16 x(30,1,16) <= 0
 precT(25,27): 15 x(25,0,13) - 15 x(27,0,15) <= 0
 precT(26,28): 15 x(26,0,14) + 16 x(26,0,15) - 16 x(28,0,16) <= 0
 precT(26,30): 15 x(26,0,14) + 16 x(26,0,15) - 15 x(30,0,15)
   - 16 x(30,0,16) - 17 x(30,0,17) - 15 x(30,1,15) - 16 x(30,1,16) <= 0
 precT(27,28): 16 x(27,0,15) - 16 x(28,0,16) <= 0
 precT(28,31): 21 x(28,0,16) - 21 x(31,0,21) <= 0
 precT(29,31): 14 x(29,0,13) + 15 x(29,0,14) + 16 x(29,0,15)
   + 17 x(29,0,16) + 18 x(29,0,17) + 19 x(29,0,18) + 20 x(29,0,19)
   + 21 x(29,0,20) + 18 x(29,1,13) + 19 x(29,1,14) + 20 x(29,1,15)
   + 21 x(29,1,16) - 21 x(31,0,21) <= 0
 precT(30,31): 19 x(30,0,15) + 20 x(30,0,16) + 21 x(30,0,17)
   + 20 x(30,1,15) + 21 x(30,1,16) - 21 x(31,0,21) <= 0
 selU(0): u(0,0) = 1
 selU(1): u(1,0) + u(1,1) + u(1,2) = 1
 selU(2): u(2,0) + u(2,1) + u(2,2) = 1
 selU(3): u(3,0) + u(3,1) + u(3,2) = 1
 selU(4): u(4,0) + u(4,1) + u(4,2) = 1
 selU(5): u(5,0) + u(5,1) + u(5,2) = 1
 selU(6): u(6,0) + u(6,1) + u(6,2) = 1
 selU(7): u(7,0) + u(7,1) + u(7,2) = 1
 selU(8): u(8,0) + u(8,1) + u(8,2) = 1
 selU(9): u(9,0) + u(9,1) + u(9,2) = 1
 selU(10): u(10,0) + u(10,1) + u(10,2) = 1
 selU(11): u(11,0) + u(11,1) + u(11,2) = 1
 selU(12): u(12,0) + u(12,1) + u(12,2) = 1
 selU(13): u(13,0) + u(13,1) + u(13,2) = 1
 selU(14): u(14,0) + u(14,1) + u(14,2) = 1
 selU(15): u(15,0) + u(15,1) + u(15,2) = 1
 selU(16): u(16,0) + u(16,1) + u(16,2) = 1
 selU(17): u(17,0) + u(17,1) + u(17,2) = 1
 selU(18): u(18,0) + u(18,1) + u(18,2) = 1
 selU(19): u(19,0) + u(19,1) + u(19,2) = 1
 selU(20): u(20,0) + u(20,1) + u(20,2) = 1
 selU(21): u(21,0) + u(21,1) + u(21,2) = 1
 selU(22): u(22,0) + u(22,1) + u(22,2) = 1
 selU(23): u(23,0) + u(23,1) + u(23,2) = 1
 selU(24): u(24,0) + u(24,1) + u(24,2) = 1
 selU(25): u(25,0) + u(25,1) + u(25,2) = 1
 selU(26): u(26,0) + u(26,1) + u(26,2) = 1
 selU(27): u(27,0) + u(27,1) + u(27,2) = 1
 selU(28): u(28,0) + u(28,1) + u(28,2) = 1
 selU(29): u(29,0) + u(29,1) + u(29,2) = 1
 selU(30): u(30,0) + u(30,1) + u(30,2) = 1
 selU(31): u(31,0) = 1
Bounds
 y(0) = 0
 y(1) <= 6
 y(2) = 0
 y(3) <= 2
 y(4) = 5
 2 <= y(5) <= 7
 5 <= y(6) <= 6
 y(7) = 7
 2 <= y(8) <= 4
 3 <= y(9) <= 5
 5 <= y(10) <= 7
 12 <= y(11) <= 13
 4 <= y(12) <= 12
 7 <= y(13) <= 12
 7 <= y(14) <= 9
 4 <= y(15) <= 10
 8 <= y(16) <= 13
 8 <= y(17) <= 10
 y(18) = 11
 11 <= y(19) <= 15
 y(20) = 12
 10 <= y(21) <= 12
 13 <= y(22) <= 14
 11 <= y(23) <= 13
 12 <= y(24) <= 16
 y(25) = 13
 14 <= y(26) <= 15
 y(27) = 15
 y(28) = 16
 13 <= y(29) <= 20
 15 <= y(30) <= 17
 y(31) = 21
 d(0) = 0
 4 <= d(1) <= 5
 5 <= d(2) <= 8
 2 <= d(3) <= 9
 2 <= d(4) <= 9
 6 <= d(5) <= 8
 7 <= d(6) <= 8
 4 <= d(7) <= 5
 1 <= d(8) <= 3
 5 <= d(9) <= 8
 2 <= d(10) <= 10
 1 <= d(11) <= 10
 3 <= d(12) <= 10
 3 <= d(13) <= 7
 3 <= d(14) <= 5
 1 <= d(15) <= 3
 4 <= d(16) <= 8
 3 <= d(17) <= 6
 1 <= d(18) <= 5
 1 <= d(19) <= 9
 1 <= d(20) <= 6
 2 <= d(21) <= 10
 1 <= d(22) <= 7
 2 <= d(23) <= 8
 1 <= d(24) <= 10
 2 <= d(25) <= 7
 1 <= d(26) <= 10
 1 <= d(27) <= 7
 5 <= d(28) <= 10
 1 <= d(29) <= 9
 4 <= d(30) <= 8
 d(31) = 0
 releaseDateAndCP = 1
Binaries
 x(0,0,0) x(1,0,0) x(1,0,1) x(1,0,2) x(1,0,3) x(1,0,4) x(1,0,5) x(1,0,6)
 x(1,1,0) x(1,1,1) x(1,1,2) x(1,1,3) x(1,1,4) x(1,1,5) x(1,2,0) x(1,2,1)
 x(1,2,2) x(1,2,3) x(1,2,4) x(1,2,5) x(2,0,0) x(3,0,0) x(3,0,1) x(3,0,2)
 x(4,0,5) x(5,0,2) x(5,0,3) x(5,0,4) x(5,0,5) x(5,0,6) x(5,0,7) x(5,1,2)
 x(5,1,3) x(5,1,4) x(5,1,5) x(5,2,2) x(5,2,3) x(5,2,4) x(5,2,5) x(6,0,5)
 x(6,0,6) x(6,1,5) x(6,1,6) x(6,2,5) x(7,0,7) x(7,1,7) x(8,0,2) x(8,0,3)
 x(8,0,4) x(8,1,2) x(8,1,3) x(8,2,2) x(9,0,3) x(9,0,4) x(9,0,5) x(9,1,3)
 x(10,0,5) x(10,0,6) x(10,0,7) x(11,0,12) x(11,0,13) x(12,0,4) x(12,0,5)
 x(12,0,6) x(12,0,7) x(12,0,8) x(12,0,9) x(12,0,10) x(12,0,11) x(12,0,12)
 x(12,1,4) x(12,1,5) x(12,1,6) x(12,1,7) x(12,1,8) x(12,1,9) x(12,1,10)
 x(12,1,11) x(12,2,4) x(12,2,5) x(13,0,7) x(13,0,8) x(13,0,9) x(13,0,10)
 x(13,0,11) x(13,0,12) x(13,1,7) x(13,1,8) x(13,2,7) x(13,2,8) x(14,0,7)
 x(14,0,8) x(14,0,9) x(14,1,7) x(14,1,8) x(14,1,9) x(14,2,7) x(15,0,4)
 x(15,0,5) x(15,0,6) x(15,0,7) x(15,0,8) x(15,0,9) x(15,0,10) x(15,1,4)
 x(15,1,5) x(15,1,6) x(15,1,7) x(15,1,8) x(15,1,9) x(15,2,4) x(15,2,5)
 x(15,2,6) x(15,2,7) x(15,2,8) x(16,0,8) x(16,0,9) x(16,0,10) x(16,0,11)
 x(16,0,12) x(16,0,13) x(16,1,8) x(16,1,9) x(16,1,10) x(16,1,11) x(16,1,12)
 x(16,2,8) x(16,2,9) x(17,0,8) x(17,0,9) x(17,0,10) x(17,1,8) x(18,0,11)
 x(19,0,11) x(19,0,12) x(19,0,13) x(19,0,14) x(19,0,15) x(20,0,12)
 x(21,0,10) x(21,0,11) x(21,0,12) x(22,0,13) x(22,0,14) x(23,0,11)
 x(23,0,12) x(23,0,13) x(24,0,12) x(24,0,13) x(24,0,14) x(24,0,15)
 x(24,0,16) x(25,0,13) x(26,0,14) x(26,0,15) x(27,0,15) x(28,0,16)
 x(29,0,13) x(29,0,14) x(29,0,15) x(29,0,16) x(29,0,17) x(29,0,18)
 x(29,0,19) x(29,0,20) x(29,1,13) x(29,1,14) x(29,1,15) x(29,1,16)
 x(30,0,15) x(30,0,16) x(30,0,17) x(30,1,15) x(30,1,16) x(31,0,21) u(0,0)
 u(1,0) u(1,1) u(1,2) u(2,0) u(2,1) u(2,2) u(3,0) u(3,1) u(3,2) u(4,0)
 u(4,1) u(4,2) u(5,0) u(5,1) u(5,2) u(6,0) u(6,1) u(6,2) u(7,0) u(7,1)
 u(7,2) u(8,0) u(8,1) u(8,2) u(9,0) u(9,1) u(9,2) u(10,0) u(10,1) u(10,2)
 u(11,0) u(11,1) u(11,2) u(12,0) u(12,1) u(12,2) u(13,0) u(13,1) u(13,2)
 u(14,0) u(14,1) u(14,2) u(15,0) u(15,1) u(15,2) u(16,0) u(16,1) u(16,2)
 u(17,0) u(17,1) u(17,2) u(18,0) u(18,1) u(18,2) u(19,0) u(19,1) u(19,2)
 u(20,0) u(20,1) u(20,2) u(21,0) u(21,1) u(21,2) u(22,0) u(22,1) u(22,2)
 u(23,0) u(23,1) u(23,2) u(24,0) u(24,1) u(24,2) u(25,0) u(25,1) u(25,2)
 u(26,0) u(26,1) u(26,2) u(27,0) u(27,1) u(27,2) u(28,0) u(28,1) u(28,2)
 u(29,0) u(29,1) u(29,2) u(30,0) u(30,1) u(30,2) u(31,0)
Generals
 y(0) y(1) y(2) y(3) y(4) y(5) y(6) y(7) y(8) y(9) y(10) y(11) y(12) y(13)
 y(14) y(15) y(16) y(17) y(18) y(19) y(20) y(21) y(22) y(23) y(24) y(25)
 y(26) y(27) y(28) y(29) y(30) y(31) d(0) d(1) d(2) d(3) d(4) d(5) d(6)
 d(7) d(8) d(9) d(10) d(11) d(12) d(13) d(14) d(15) d(16) d(17) d(18) d(19)
 d(20) d(21) d(22) d(23) d(24) d(25) d(26) d(27) d(28) d(29) d(30) d(31)
 releaseDateAndCP
End
